NAME : 27.81414.tour
COMMENT : Length = 81414
COMMENT : Found by LKH-3 [Keld Helsgaun] Thu Jun 19 18:16:47 2025
TYPE : TOUR
DIMENSION : 100
TOUR_SECTION
1
63
57
39
89
71
32
81
87
38
62
31
21
37
13
36
16
10
91
55
75
54
4
40
47
7
18
78
76
70
5
69
48
96
67
88
46
58
56
65
19
68
77
51
22
43
60
35
20
79
17
8
12
82
24
6
99
15
100
26
72
30
52
59
44
42
33
73
61
50
27
3
11
98
41
9
45
94
14
28
90
49
74
84
85
93
53
97
2
80
29
66
23
25
95
83
34
64
86
92
-1
EOF
